Version identifier: 22.1.1.0 | 2022-11-28 | 9160aff4d
CPXPARAM_TimeLimit                               3600
Tried aggregator 1 time.
MIP Presolve eliminated 263 rows and 214 columns.
Reduced MIP has 4937 rows, 2389 columns, and 14711 nonzeros.
Reduced MIP has 2389 binaries, 0 generals, 0 SOSs, and 0 indicators.
Presolve time = 0.01 sec. (11.87 ticks)
Found incumbent of value 3745337.000000 after 0.01 sec. (14.36 ticks)
Probing time = 0.00 sec. (3.42 ticks)
Tried aggregator 1 time.
Detecting symmetries...
Reduced MIP has 4937 rows, 2389 columns, and 14711 nonzeros.
Reduced MIP has 2389 binaries, 0 generals, 0 SOSs, and 0 indicators.
Presolve time = 0.01 sec. (12.73 ticks)
Probing time = 0.01 sec. (3.42 ticks)
Clique table members: 2287.
MIP emphasis: balance optimality and feasibility.
MIP search method: dynamic search.
Parallel mode: deterministic, using up to 8 threads.
Root relaxation solution time = 0.01 sec. (9.60 ticks)

        Nodes                                         Cuts/
   Node  Left     Objective  IInf  Best Integer    Best Bound    ItCnt     Gap

*     0+    0                      3745337.0000        0.0000           100.00%
*     0+    0                      1938026.0000        0.0000           100.00%
*     0+    0                      1423147.0000        0.0000           100.00%
*     0+    0                      1368295.0000        0.0000           100.00%
      0     0    93774.0000   100  1368295.0000    93774.0000      157   93.15%
*     0+    0                      1019324.0000    93774.0000            90.80%
      0     0   106217.5000   100  1019324.0000     Cuts: 131      280   89.58%
*     0+    0                       834644.0000   106217.5000            87.27%
*     0+    0                       138813.0000   106217.5000            23.48%
      0     0   117894.0000    82   138813.0000     Cuts: 132      404   15.07%
Detecting symmetries...

Repeating presolve.
Tried aggregator 1 time.
MIP Presolve eliminated 4128 rows and 1698 columns.
MIP Presolve modified 471 coefficients.
Reduced MIP has 809 rows, 691 columns, and 2789 nonzeros.
Reduced MIP has 691 binaries, 0 generals, 0 SOSs, and 0 indicators.
Presolve time = 0.00 sec. (4.80 ticks)
Probing time = 0.00 sec. (0.73 ticks)
Tried aggregator 1 time.
Detecting symmetries...
MIP Presolve eliminated 7 rows and 0 columns.
Reduced MIP has 802 rows, 691 columns, and 2775 nonzeros.
Reduced MIP has 691 binaries, 0 generals, 0 SOSs, and 0 indicators.
Presolve time = 0.00 sec. (2.94 ticks)
Represolve time = 0.01 sec. (12.49 ticks)
Probing time = 0.00 sec. (0.73 ticks)
Clique table members: 670.
MIP emphasis: balance optimality and feasibility.
MIP search method: dynamic search.
Parallel mode: deterministic, using up to 8 threads.
Root relaxation solution time = 0.01 sec. (5.54 ticks)

        Nodes                                         Cuts/
   Node  Left     Objective  IInf  Best Integer    Best Bound    ItCnt     Gap

*     0+    0                       138813.0000   117894.0000            15.07%
      0     0   126837.0000    80   138813.0000   126837.0000      634    8.63%
*     0+    0                       138573.0000   126837.0000             8.47%
      0     0   130381.6000   154   138573.0000      Cuts: 17      736    5.91%
      0     0   131545.4098   148   138573.0000      Cuts: 51      808    5.07%
*     0+    0                       138438.0000   131545.4098             4.98%
Detecting symmetries...

Repeating presolve.
Tried aggregator 1 time.
MIP Presolve eliminated 294 rows and 258 columns.
MIP Presolve modified 79 coefficients.
Reduced MIP has 508 rows, 433 columns, and 1702 nonzeros.
Reduced MIP has 433 binaries, 0 generals, 0 SOSs, and 0 indicators.
Presolve time = 0.00 sec. (1.87 ticks)
Probing time = 0.00 sec. (0.36 ticks)
Tried aggregator 1 time.
Detecting symmetries...
MIP Presolve eliminated 11 rows and 0 columns.
Reduced MIP has 497 rows, 433 columns, and 1680 nonzeros.
Reduced MIP has 433 binaries, 0 generals, 0 SOSs, and 0 indicators.
Presolve time = 0.00 sec. (1.80 ticks)
Represolve time = 0.01 sec. (6.54 ticks)
Probing time = 0.00 sec. (0.35 ticks)
Clique table members: 497.
MIP emphasis: balance optimality and feasibility.
MIP search method: dynamic search.
Parallel mode: deterministic, using up to 8 threads.
Root relaxation solution time = 0.01 sec. (6.48 ticks)

        Nodes                                         Cuts/
   Node  Left     Objective  IInf  Best Integer    Best Bound    ItCnt     Gap

*     0+    0                       138438.0000   131545.4098             4.98%
      0     0   131568.9524   145   138438.0000   131568.9524     1074    4.96%
      0     0   132216.7432   146   138438.0000      Cuts: 45     1153    3.70%
      0     0   132649.2982   157   138438.0000  ZeroHalf: 12     1208    3.70%
      0     0   133411.2483   146   138438.0000  ZeroHalf: 12     1287    3.63%
      0     0   133557.5063   154   138438.0000  ZeroHalf: 43     1313    3.53%
      0     0   134763.6250   150   138438.0000  ZeroHalf: 14     1365    2.65%
      0     0   135081.6395   182   138438.0000  ZeroHalf: 26     1413    2.42%
      0     0   135215.3174   173   138438.0000  ZeroHalf: 17     1445    2.33%
      0     0   135258.6215   173   138438.0000  ZeroHalf: 12     1482    2.30%
      0     0   135316.7712   179   138438.0000  ZeroHalf: 13     1524    2.25%
      0     0   135371.5497   167   138438.0000   ZeroHalf: 8     1567    2.22%
      0     0   135404.7244   177   138438.0000   ZeroHalf: 4     1593    2.19%
      0     0   135443.3949   179   138438.0000   ZeroHalf: 6     1642    2.16%
      0     0   135499.7974   173   138438.0000   ZeroHalf: 5     1676    2.12%
      0     0   135523.4926   169   138438.0000   ZeroHalf: 3     1702    2.11%
      0     0        cutoff         138438.0000   138438.0000     1756    0.00%
Elapsed time = 0.45 sec. (312.28 ticks, tree = 0.01 MB, solutions = 9)

Implied bound cuts applied:  40
Zero-half cuts applied:  32
Lift and project cuts applied:  1
Gomory fractional cuts applied:  2

Root node processing (before b&c):
  Real time             =    0.45 sec. (312.51 ticks)
Parallel b&c, 8 threads:
  Real time             =    0.00 sec. (0.00 ticks)
  Sync time (average)   =    0.00 sec.
  Wait time (average)   =    0.00 sec.
                          ------------
Total (root+branch&cut) =    0.45 sec. (312.51 ticks)
Status: Optimal
Obj: 138438

Instalacoes abertas:
Instalação 4 aberta
Instalação 9 aberta
Instalação 20 aberta
Instalação 22 aberta

Atribuições (cliente -> instalação):
Cliente 0 -> Instalação 4
Cliente 1 -> Instalação 4
Cliente 2 -> Instalação 9
Cliente 3 -> Instalação 20
Cliente 4 -> Instalação 9
Cliente 5 -> Instalação 20
Cliente 6 -> Instalação 9
Cliente 7 -> Instalação 20
Cliente 8 -> Instalação 4
Cliente 9 -> Instalação 9
Cliente 10 -> Instalação 20
Cliente 11 -> Instalação 20
Cliente 12 -> Instalação 4
Cliente 13 -> Instalação 9
Cliente 14 -> Instalação 9
Cliente 15 -> Instalação 9
Cliente 16 -> Instalação 20
Cliente 17 -> Instalação 9
Cliente 18 -> Instalação 20
Cliente 19 -> Instalação 9
Cliente 20 -> Instalação 20
Cliente 21 -> Instalação 9
Cliente 22 -> Instalação 22
Cliente 23 -> Instalação 9
Cliente 24 -> Instalação 20
Cliente 25 -> Instalação 20
Cliente 26 -> Instalação 9
Cliente 27 -> Instalação 20
Cliente 28 -> Instalação 20
Cliente 29 -> Instalação 4
Cliente 30 -> Instalação 9
Cliente 31 -> Instalação 20
Cliente 32 -> Instalação 9
Cliente 33 -> Instalação 9
Cliente 34 -> Instalação 4
Cliente 35 -> Instalação 9
Cliente 36 -> Instalação 9
Cliente 37 -> Instalação 20
Cliente 38 -> Instalação 4
Cliente 39 -> Instalação 9
Cliente 40 -> Instalação 9
Cliente 41 -> Instalação 20
Cliente 42 -> Instalação 4
Cliente 43 -> Instalação 9
Cliente 44 -> Instalação 4
Cliente 45 -> Instalação 4
Cliente 46 -> Instalação 4
Cliente 47 -> Instalação 4
Cliente 48 -> Instalação 20
Cliente 49 -> Instalação 9
